BAYES
76
2 2 2 2 2 2 2 2 2 2 2 2 2 2 2 2 2 2 2 2 2 2 2 2 2 2 2 2 2 2 2 2 2 2 2 2 2 2 2 2 2 2 2 2 2 2 2 2 2 2 2 2 2 2 2 2 2 2 2 2 2 2 2 2 2 2 2 2 2 2 2 2 2 2 2 2
76
1 0
1 1
1 2
1 3
1 4
1 5
1 6
1 7
1 8
1 9
1 10
1 11
1 12
1 13
1 14
1 15
1 16
1 17
1 18
1 19
1 20
1 21
1 22
1 23
1 24
1 25
1 26
1 27
1 28
1 29
1 30
1 31
1 32
1 33
2 3 34
4 1 2 6 35
3 2 6 36
2 10 37
2 10 38
3 13 2 39
2 16 40
3 18 14 41
2 23 42
4 24 4 13 43
4 28 8 11 44
4 28 25 22 45
2 28 46
4 28 21 27 47
4 28 22 9 48
4 28 8 11 49
2 29 50
2 38 51
4 28 38 37 52
3 16 40 53
3 16 40 54
5 41 24 4 13 55
4 41 19 33 56
6 41 1 5 2 6 57
5 41 0 28 13 58
5 41 0 28 2 59
3 47 40 60
4 15 48 45 61
4 44 16 49 62
4 52 2 26 63
4 41 10 56 64
4 30 58 59 65
4 47 16 60 66
4 30 52 63 67
5 0 64 31 17 68
3 65 40 69
3 68 7 70
4 65 16 69 71
2 70 72
8 30 70 35 43 20 57 55 73
8 29 23 73 28 32 12 3 74
2 74 75
2
 0.9 0.1
2
 0.97 0.03
2
 0.98 0.02
2
 0.995 0.005
2
 0.99 0.01
2
 0.8 0.2
2
 0.7 0.3
2
 0.99 0.01
2
 0.95 0.05
2
 0.9 0.1
2
 0.95 0.05
2
 0.99 0.01
2
 0.85 0.15
2
 0.99 0.01
2
 0.995 0.005
2
 0.9 0.1
2
 0.4 0.6
2
 0.99 0.01
2
 0.995 0.005
2
 0.97 0.03
2
 0.15 0.85
2
 0.95 0.05
2
 0.98 0.02
2
 0.98 0.02
2
 0.98 0.02
2
 0.95 0.05
2
 0.99 0.01
2
 0.98 0.02
2
 0.95 0.05
2
 0.9 0.1
2
 0.8 0.2
2
 0.99 0.01
2
 0.94 0.06
2
 0.9999 0.0001
4
 0.99900001 0.00099999 0.00099999 0.99900001
16
 0.99 0.01 0.0 1.0 0.1 0.9 0.5 0.5 0.0 1.0 0.5 0.5 0.5 0.5 0.5 0.5
8
 0.9999 0.0001 0.7 0.3 0.25 0.75 0.5 0.5
4
 0.99000001 0.00999999 1.0 0.0
4
 1.0 0.0 0.99000001 0.00999999
8
 1.0 0.0 0.5 0.5 0.5 0.5 0.5 0.5
4
 0.98 0.02 1.0 0.0
8
 0.9999 0.0001 0.0 1.0 0.0 1.0 0.5 0.5
4
 0.99900001 0.00099999 0.00099999 0.99900001
16
 0.999 0.001 0.01 0.99 0.0 1.0 0.5 0.5 0.0 1.0 0.5 0.5 0.5 0.5 0.5 0.5
16
 0.999 0.001 0.0 1.0 0.1 0.9 0.5 0.5 0.25 0.75 0.5 0.5 0.5 0.5 0.5 0.5
16
 0.99000001 0.00999999 0.1 0.9 0.1 0.9 0.5 0.5 0.5 0.5 0.5 0.5 0.5 0.5 0.5 0.5
4
 0.99900001 0.00099999 0.2 0.8
16
 0.99 0.01 0.1 0.9 0.00999999 0.99000001 0.5 0.5 0.3 0.7 0.5 0.5 0.5 0.5 0.5 0.5
16
 0.99000001 0.00999999 0.0 1.0 0.1 0.9 0.5 0.5 0.5 0.5 0.5 0.5 0.5 0.5 0.5 0.5
16
 0.999 0.001 1.0 0.0 0.1 0.9 0.5 0.5 0.25 0.75 0.5 0.5 0.5 0.5 0.5 0.5
4
 0.99000001 0.00999999 0.00999999 0.99000001
4
 0.99 0.01 0.1 0.9
16
 0.99900001 0.00099999 0.00099999 0.99900001 0.00099999 0.99900001 0.5 0.5 0.25 0.75 0.5 0.5 0.5 0.5 0.5 0.5
8
 1.0 0.0 0.05 0.95 1.0 0.0 1.0 0.0
8
 0.99900001 0.00099999 0.00099999 0.99900001 1.0 0.0 1.0 0.0
32
 1.0 0.0 0.1 0.9 0.0 1.0 0.5 0.5 0.0 1.0 0.5 0.5 0.5 0.5 0.5 0.5 0.1 0.9 0.5 0.5 0.5 0.5 0.5 0.5 0.5 0.5 0.5 0.5 0.5 0.5 0.5 0.5
16
 0.99 0.01 0.05 0.95 0.0 1.0 0.5 0.5 0.1 0.9 0.5 0.5 0.5 0.5 0.5 0.5
64
 0.99 0.01 0.0 1.0 0.1 0.9 0.5 0.5 0.0 1.0 0.5 0.5 0.5 0.5 0.5 0.5 0.0 1.0 0.5 0.5 0.5 0.5 0.5 0.5 0.5 0.5 0.5 0.5 0.5 0.5 0.5 0.5 0.2 0.8 0.5 0.5 0.5 0.5 0.5 0.5 0.5 0.5 0.5 0.5 0.5 0.5 0.5 0.5 0.5 0.5 0.5 0.5 0.5 0.5 0.5 0.5 0.5 0.5 0.5 0.5 0.5 0.5 0.5 0.5
32
 1.0 0.0 0.1 0.9 0.2 0.8 0.5 0.5 0.4 0.6 0.5 0.5 0.5 0.5 0.5 0.5 0.2 0.8 0.5 0.5 0.5 0.5 0.5 0.5 0.5 0.5 0.5 0.5 0.5 0.5 0.5 0.5
32
 1.0 0.0 0.4 0.6 0.2 0.8 0.5 0.5 0.4 0.6 0.5 0.5 0.5 0.5 0.5 0.5 0.3 0.7 0.5 0.5 0.5 0.5 0.5 0.5 0.5 0.5 0.5 0.5 0.5 0.5 0.5 0.5
8
 1.0 0.0 0.3 0.7 0.0 1.0 0.5 0.5
16
 0.0 1.0 0.0 1.0 1.0 0.0 1.0 0.0 0.0 1.0 1.0 0.0 0.0 1.0 1.0 0.0
16
 0.0 1.0 1.0 0.0 0.0 1.0 0.0 1.0 0.0 1.0 1.0 0.0 1.0 0.0 1.0 0.0
16
 0.99900001 0.00099999 0.25 0.75 0.25 0.75 0.5 0.5 0.0 1.0 0.5 0.5 0.5 0.5 0.5 0.5
16
 1.0 0.0 0.0 1.0 1.0 0.0 1.0 0.0 0.0 1.0 0.0 1.0 0.0 1.0 0.0 1.0
16
 1.0 0.0 1.0 0.0 0.0 1.0 0.0 1.0 1.0 0.0 0.0 1.0 1.0 0.0 0.0 1.0
16
 0.0 1.0 1.0 0.0 0.0 1.0 0.0 1.0 0.0 1.0 1.0 0.0 1.0 0.0 1.0 0.0
16
 1.0 0.0 1.0 0.0 0.0 1.0 0.0 1.0 1.0 0.0 0.0 1.0 1.0 0.0 0.0 1.0
32
 0.99 0.01 0.2 0.8 0.9 0.1 0.5 0.5 0.1 0.9 0.5 0.5 0.5 0.5 0.5 0.5 0.1 0.9 0.5 0.5 0.5 0.5 0.5 0.5 0.5 0.5 0.5 0.5 0.5 0.5 0.5 0.5
8
 1.0 0.0 0.1 0.9 0.0 1.0 0.5 0.5
8
 0.99 0.01 0.0 1.0 0.0 1.0 0.5 0.5
16
 1.0 0.0 0.0 1.0 1.0 0.0 1.0 0.0 1.0 0.0 0.0 1.0 0.0 1.0 0.0 1.0
4
 0.8 0.2 0.2 0.8
256
 1.0 0.0 0.0 1.0 1.0 0.0 0.0 1.0 1.0 0.0 1.0 0.0 1.0 0.0 1.0 0.0 1.0 0.0 0.0 1.0 1.0 0.0 0.0 1.0 0.0 1.0 0.0 1.0 0.0 1.0 0.0 1.0 1.0 0.0 0.0 1.0 1.0 0.0 0.0 1.0 1.0 0.0 1.0 0.0 1.0 0.0 1.0 0.0 1.0 0.0 0.0 1.0 1.0 0.0 0.0 1.0 0.0 1.0 0.0 1.0 0.0 1.0 0.0 1.0 1.0 0.0 0.0 1.0 1.0 0.0 0.0 1.0 0.0 1.0 0.0 1.0 0.0 1.0 0.0 1.0 1.0 0.0 0.0 1.0 1.0 0.0 0.0 1.0 0.0 1.0 0.0 1.0 0.0 1.0 0.0 1.0 1.0 0.0 0.0 1.0 1.0 0.0 0.0 1.0 0.0 1.0 0.0 1.0 0.0 1.0 0.0 1.0 1.0 0.0 0.0 1.0 1.0 0.0 0.0 1.0 0.0 1.0 0.0 1.0 0.0 1.0 0.0 1.0 1.0 0.0 1.0 0.0 0.0 1.0 0.0 1.0 1.0 0.0 1.0 0.0 1.0 0.0 1.0 0.0 1.0 0.0 1.0 0.0 0.0 1.0 0.0 1.0 1.0 0.0 1.0 0.0 1.0 0.0 1.0 0.0 1.0 0.0 1.0 0.0 0.0 1.0 0.0 1.0 0.0 1.0 0.0 1.0 0.0 1.0 0.0 1.0 1.0 0.0 1.0 0.0 0.0 1.0 0.0 1.0 0.0 1.0 0.0 1.0 0.0 1.0 0.0 1.0 1.0 0.0 1.0 0.0 0.0 1.0 0.0 1.0 0.0 1.0 0.0 1.0 0.0 1.0 0.0 1.0 1.0 0.0 1.0 0.0 0.0 1.0 0.0 1.0 0.0 1.0 0.0 1.0 0.0 1.0 0.0 1.0 1.0 0.0 1.0 0.0 0.0 1.0 0.0 1.0 0.0 1.0 0.0 1.0 0.0 1.0 0.0 1.0 1.0 0.0 1.0 0.0 0.0 1.0 0.0 1.0 0.0 1.0 0.0 1.0 0.0 1.0 0.0 1.0
256
 0.99 0.01 0.01 0.99 0.02 0.98 0.5 0.5 0.0 1.0 0.5 0.5 0.5 0.5 0.5 0.5 0.1 0.9 0.5 0.5 0.5 0.5 0.5 0.5 0.5 0.5 0.5 0.5 0.5 0.5 0.5 0.5 0.0 1.0 0.5 0.5 0.5 0.5 0.5 0.5 0.5 0.5 0.5 0.5 0.5 0.5 0.5 0.5 0.5 0.5 0.5 0.5 0.5 0.5 0.5 0.5 0.5 0.5 0.5 0.5 0.5 0.5 0.5 0.5 0.0 1.0 0.5 0.5 0.5 0.5 0.5 0.5 0.5 0.5 0.5 0.5 0.5 0.5 0.5 0.5 0.5 0.5 0.5 0.5 0.5 0.5 0.5 0.5 0.5 0.5 0.5 0.5 0.5 0.5 0.5 0.5 0.5 0.5 0.5 0.5 0.5 0.5 0.5 0.5 0.5 0.5 0.5 0.5 0.5 0.5 0.5 0.5 0.5 0.5 0.5 0.5 0.5 0.5 0.5 0.5 0.5 0.5 0.5 0.5 0.5 0.5 0.5 0.5 0.0 1.0 0.5 0.5 0.5 0.5 0.5 0.5 0.5 0.5 0.5 0.5 0.5 0.5 0.5 0.5 0.5 0.5 0.5 0.5 0.5 0.5 0.5 0.5 0.5 0.5 0.5 0.5 0.5 0.5 0.5 0.5 0.5 0.5 0.5 0.5 0.5 0.5 0.5 0.5 0.5 0.5 0.5 0.5 0.5 0.5 0.5 0.5 0.5 0.5 0.5 0.5 0.5 0.5 0.5 0.5 0.5 0.5 0.5 0.5 0.5 0.5 0.5 0.5 0.5 0.5 0.5 0.5 0.5 0.5 0.5 0.5 0.5 0.5 0.5 0.5 0.5 0.5 0.5 0.5 0.5 0.5 0.5 0.5 0.5 0.5 0.5 0.5 0.5 0.5 0.5 0.5 0.5 0.5 0.5 0.5 0.5 0.5 0.5 0.5 0.5 0.5 0.5 0.5 0.5 0.5 0.5 0.5 0.5 0.5 0.5 0.5 0.5 0.5 0.5 0.5 0.5 0.5 0.5 0.5 0.5 0.5 0.5 0.5 0.5 0.5 0.5 0.5
4
 1.0 0.0 0.0 1.0
